c User generated cnf file
p cnf 15 81
-10 3 5 0 
8 1 -9 0 
7 -1 4 0 
10 15 -3 0 
-5 7 5 0 
-10 6 9 0 
14 -3 5 0 
-13 15 8 0 
5 6 -7 0 
-11 8 3 0 
1 -9 15 0 
4 3 -11 0 
-4 8 6 0 
6 2 -12 0 
-15 4 8 0 
15 -6 15 0 
1 -13 13 0 
6 -14 12 0 
5 -2 1 0 
-8 8 7 0 
15 3 -6 0 
-11 2 12 0 
-11 1 6 0 
-4 11 9 0 
-4 14 4 0 
11 9 -6 0 
13 -1 3 0 
-3 9 9 0 
6 5 -14 0 
6 -12 9 0 
8 13 -7 0 
13 -5 7 0 
7 -10 10 0 
-8 1 5 0 
1 13 -12 0 
7 10 -10 0 
-14 8 11 0 
-5 9 9 0 
-8 13 13 0 
8 3 -6 0 
14 -4 12 0 
10 -5 4 0 
10 3 -15 0 
7 -14 2 0 
4 -12 11 0 
13 2 -7 0 
9 -4 12 0 
9 -12 10 0 
-12 15 5 0 
13 9 -10 0 
10 -5 14 0 
1 -6 9 0 
12 7 -1 0 
-8 1 9 0 
8 1 -6 0 
11 14 -10 0 
-9 1 2 0 
-2 2 11 0 
3 -5 13 0 
3 -12 15 0 
10 5 -11 0 
1 2 -8 0 
15 -2 8 0 
14 -10 9 0 
2 -5 5 0 
-15 13 1 0 
14 11 -12 0 
-8 7 2 0 
15 -9 8 0 
5 10 -9 0 
-7 10 12 0 
15 -13 5 0 
-5 9 4 0 
-15 11 2 0 
7 -4 9 0 
-4 8 1 0 
14 -8 4 0 
-13 5 7 0 
12 1 -9 0 
5 -14 13 0 
-11 2 5 0 
